tsp_instances/TSP20/instance28.tsp
NODE_COORD_SECTION
0 50 186
1 200 194
2 75 70
3 76 179
4 19 33
5 56 152
6 108 31
7 19 128
8 27 36
9 139 119
10 40 13
11 38 95
12 106 176
13 9 84
14 71 106
15 159 27
16 157 11
17 195 3
18 191 83
19 83 163
