tsp_instances/TSP20/instance28.opt.tour
TOUR_SECTION
1
4
20
13
2
10
19
18
17
16
7
11
5
9
3
15
12
14
8
6
-1